{'code': [5, 9, 1, 4, 8, 5, 5, 16, 10, 13, 15, 12, 3, 11, 4, 1, 0, 2, 17, 19, 7, 6, 10, 0, 6, 10, 18
, 4, 16, 11, 19, 16, 9, 8, 0, 14, 9, 18, 15, 4, 12, 8, 12, 0, 4, 1, 4, 6, 11, 18, 16, 9, 4, 15, 3, 1
7, 14, 7, 12, 14, 0, 8, 13, 6, 17, 2, 8, 7, 19, 4, 1, 5, 10, 1, 16, 18, 5, 4, 13, 12, 12, 19, 0, 11,
 6, 6, 9, 19, 1, 15, 14, 16, 0, 3, 2, 13, 15, 15, 9, 2, 8, 2, 14, 3, 11, 16, 5, 14, 16, 10, 5, 9, 6,
 8, 15, 6, 1, 0, 18, 15, 7, 1, 15, 11, 7, 16, 3, 7, 13, 2, 14, 11, 19, 4, 16, 5, 17, 5, 9, 10, 6, 12
, 13, 15, 9, 6, 6, 14, 10, 9, 12, 2, 13, 2, 3, 14, 3, 0, 4, 1, 10, 6, 19, 8, 17, 12, 14, 19, 16, 1, 
18, 7, 4, 0, 3, 9, 15, 11, 10, 1, 1, 7, 10, 0, 7, 18, 8, 11, 6, 14, 17, 17, 19, 18, 6, 7, 4, 13, 2, 
2, 3, 13, 19, 16, 7, 15, 4, 3, 18, 15, 12, 18, 17, 5, 8, 11, 17, 8, 7, 18, 18, 18, 0, 14, 9, 5, 19, 
12, 3, 19, 16, 7, 19, 1, 11, 17, 13, 2, 17, 15], 'route': None, 'mac': [[0, 7, 7, 0, 1, 8, 6, 0, 8, 
3, 1, 8], [7, 4, 1, 4, 2, 5, 6, 0, 2, 0, 2, 3, 8], [6, 4, 9, 0, 6, 3, 4, 0, 4, 1, 2], [0, 0, 0, 7, 3
, 7, 3, 4, 2, 6, 0], [7, 3, 4, 4, 3, 1, 6, 7, 4, 9, 3, 4, 5, 4], [1, 1, 0, 2, 4, 6, 7, 7, 1, 5, 3], 
[7, 7, 4, 3, 0, 1, 1, 4, 3, 8, 5, 6, 6, 9], [0, 4, 4, 2, 8, 9, 5, 1, 1, 8, 1, 6, 4], [7, 1, 0, 3, 4,
 6, 1, 8, 8, 1, 7], [3, 8, 2, 9, 8, 8, 4, 2, 0, 2, 5, 0], [8, 4, 1, 3, 0, 4, 6, 2, 0, 2], [9, 3, 3, 
8, 6, 6, 1, 7, 8, 4, 9], [1, 2, 8, 4, 6, 0, 0, 7, 0, 0, 6], [4, 0, 1, 1, 5, 8, 3, 6, 6, 1], [0, 3, 1
, 5, 4, 8, 1, 9, 3, 2, 1, 5], [7, 0, 2, 8, 7, 6, 6, 1, 0, 1, 3, 4, 0, 4], [5, 8, 6, 7, 4, 4, 0, 1, 1
, 9, 6, 2, 0], [9, 3, 4, 9, 2, 2, 8, 0, 9, 7, 0], [2, 1, 6, 9, 2, 8, 2, 1, 9, 4, 1, 6, 4], [2, 6, 5,
 2, 4, 3, 4, 0, 7, 8, 5, 2, 1]], 'wok': None}
